;  depth   = 3
;  nconst  = 6
;  assertions = 5
;  timeout = 2500
;  time    = {'smt_solvers/QF_S/z3seq/': 0.1276569366455078, 'smt_solvers/QF_S/cvc4/': 0.7886598110198975, 'smt_solvers/QF_S/z3str3fed/': 0.12200808525085449, 'smt_solvers/QF_S/z3str3/': 0.23266291618347168}
;  score   = 0.5559968948364258
;  stdout  = {'smt_solvers/QF_S/z3seq/': 'unsat', 'smt_solvers/QF_S/cvc4/': 'unsat', 'smt_solvers/QF_S/z3str3fed/': 'unsat', 'smt_solvers/QF_S/z3str3/': 'unsat'}
(set-logic QF_S)(declare-fun var0 () String)(declare-fun var1 () String)(declare-fun var2 () String)(declare-fun var3 () String)(declare-fun var4 () String)(declare-fun var5 () String)(declare-fun var6 () Int)(declare-fun var7 () Int)(declare-fun var8 () Int)(declare-fun var9 () Int)(declare-fun var10 () Int)(declare-fun var11 () Int)(declare-fun var12 () Bool)(declare-fun var13 () Bool)(declare-fun var14 () Bool)(declare-fun var15 () Bool)(declare-fun var16 () Bool)(declare-fun var17 () Bool)(assert (str.prefixof (str.replace (str.replace var2 var1 var5) (str.substr var2 var11 var10) (str.replace var2 var1 var3)) (str.at (str.replace var2 "XKK`rxJ.Oy" "_Yl7]VMD/U") (str.len var1))))(assert (>= (str.indexof var2 var1 var11) (str.indexof var2 var1 var10)))(assert (>= (str.indexof (str.substr var1 var7 var7) (str.at var5 var10) (str.len var2)) (str.len (str.at var2 2))))(assert (> (str.indexof var1 var0 var10) (str.len var5)))(assert (str.prefixof (str.replace (str.replace var0 var2 "U~F/4#=+"">") (str.at var0 var7) (str.at var0 var9)) (str.at (str.at var5 (str.len (str.substr var1 var6 var10))) (str.indexof var0 var2 var11))))(check-sat)